p cnf 117 401
3 -4 -5 0
-3 4 -5 0
3 4 5 0
-3 -4 5 0
-6 -1 0
-6 3 0
1 -3 6 0
2 -1 -8 0
-2 1 -8 0
2 1 8 0
-2 -1 8 0
9 -7 0
9 -8 0
7 8 -9 0
-10 6 0
-10 9 0
-6 -9 10 0
5 -10 -11 0
-5 10 -11 0
5 10 11 0
-5 -10 11 0
-2 11 -12 0
2 -11 -12 0
-2 -11 12 0
2 11 12 0
-14 4 0
-14 1 0
-4 -1 14 0
16 1 0
16 15 0
-1 -15 -16 0
17 14 0
17 -16 0
-14 16 -17 0
-18 13 0
-18 17 0
-13 -17 18 0
-19 18 0
-19 -8 0
-18 8 19 0
12 19 -20 0
-12 -19 -20 0
12 -19 20 0
-12 19 20 0
1 -20 -21 0
-1 20 -21 0
1 20 21 0
-1 -20 21 0
-24 -22 0
-24 23 0
22 -23 24 0
-25 24 0
-25 -14 0
-24 14 25 0
25 -26 -27 0
-25 26 -27 0
25 26 27 0
-25 -26 27 0
-28 25 -29 0
28 -25 -29 0
-28 -25 29 0
28 25 29 0
-5 -29 -30 0
5 29 -30 0
-5 29 30 0
5 -29 30 0
-13 -31 -32 0
13 31 -32 0
-13 31 32 0
13 -31 32 0
-33 30 0
-33 32 0
-30 -32 33 0
34 -10 0
34 -14 0
10 14 -34 0
-23 34 -35 0
23 -34 -35 0
-23 -34 35 0
23 34 35 0
36 -2 0
36 -31 0
2 31 -36 0
-35 36 -37 0
35 -36 -37 0
-35 -36 37 0
35 36 37 0
-39 -14 0
-39 31 0
14 -31 39 0
-40 38 0
-40 39 0
-38 -39 40 0
41 7 0
41 -40 0
-7 40 -41 0
8 26 -42 0
-8 -26 -42 0
8 -26 42 0
-8 26 42 0
41 42 -43 0
-41 -42 -43 0
41 -42 43 0
-41 42 43 0
-45 -3 0
-45 44 0
3 -44 45 0
46 42 0
46 1 0
-42 -1 -46 0
47 45 0
47 -46 0
-45 46 -47 0
43 47 -48 0
-43 -47 -48 0
43 -47 48 0
-43 47 48 0
-49 -25 0
-49 8 0
25 -8 49 0
50 -44 0
50 49 0
44 -49 -50 0
-51 31 0
-51 46 0
-31 -46 51 0
9 51 -52 0
-9 -51 -52 0
9 -51 52 0
-9 51 52 0
53 -23 0
53 -52 0
23 52 -53 0
50 53 -54 0
-50 -53 -54 0
50 -53 54 0
-50 53 54 0
-31 -22 -55 0
31 22 -55 0
-31 22 55 0
31 -22 55 0
54 -55 -56 0
-54 55 -56 0
54 55 56 0
-54 -55 56 0
-57 48 0
-57 56 0
-48 -56 57 0
37 57 -58 0
-37 -57 -58 0
37 -57 58 0
-37 57 58 0
59 -33 0
59 58 0
33 -58 -59 0
-49 45 -60 0
49 -45 -60 0
-49 -45 60 0
49 45 60 0
61 9 0
61 -44 0
-9 44 -61 0
62 28 0
62 61 0
-28 -61 -62 0
60 -62 -63 0
-60 62 -63 0
60 62 63 0
-60 -62 63 0
64 59 0
64 63 0
-59 -63 -64 0
-27 64 -65 0
27 -64 -65 0
-27 -64 65 0
27 64 65 0
-66 28 0
-66 -9 0
-28 9 66 0
67 5 0
67 -4 0
-5 4 -67 0
16 -67 -68 0
-16 67 -68 0
16 67 68 0
-16 -67 68 0
34 -29 -69 0
-34 29 -69 0
34 29 69 0
-34 -29 69 0
68 -69 -70 0
-68 69 -70 0
68 69 70 0
-68 -69 70 0
-66 -70 -71 0
66 70 -71 0
-66 70 71 0
66 -70 71 0
-72 17 0
-72 14 0
-17 -14 72 0
73 40 0
73 -69 0
-40 69 -73 0
75 40 0
75 -74 0
-40 74 -75 0
-76 73 0
-76 75 0
-73 -75 76 0
72 -76 -77 0
-72 76 -77 0
72 76 77 0
-72 -76 77 0
-71 77 -78 0
71 -77 -78 0
-71 -77 78 0
71 77 78 0
79 65 0
79 78 0
-65 -78 -79 0
-80 -21 0
-80 -79 0
21 79 80 0
-26 32 -81 0
26 -32 -81 0
-26 -32 81 0
26 32 81 0
-82 46 0
-82 -2 0
-46 2 82 0
83 1 0
83 3 0
-1 -3 -83 0
-84 -83 0
-84 3 0
83 -3 84 0
82 -84 -85 0
-82 84 -85 0
82 84 85 0
-82 -84 85 0
69 85 -86 0
-69 -85 -86 0
69 -85 86 0
-69 85 86 0
88 -87 0
88 -67 0
87 67 -88 0
-89 44 0
-89 34 0
-44 -34 89 0
-90 -14 0
-90 -1 0
14 1 90 0
-91 -23 0
-91 90 0
23 -90 91 0
-89 91 -92 0
89 -91 -92 0
-89 -91 92 0
89 91 92 0
-17 68 -93 0
17 -68 -93 0
-17 -68 93 0
17 68 93 0
-94 92 0
-94 -93 0
-92 93 94 0
95 -88 0
95 -94 0
88 94 -95 0
-96 32 0
-96 -1 0
-32 1 96 0
11 -8 -97 0
-11 8 -97 0
11 8 97 0
-11 -8 97 0
-98 96 0
-98 97 0
-96 -97 98 0
99 95 0
99 98 0
-95 -98 -99 0
-86 -99 -100 0
86 99 -100 0
-86 99 100 0
86 -99 100 0
101 38 0
101 -35 0
-38 35 -101 0
-101 12 -102 0
101 -12 -102 0
-101 -12 102 0
101 12 102 0
-23 -14 -103 0
23 14 -103 0
-23 14 103 0
23 -14 103 0
102 -103 -104 0
-102 103 -104 0
102 103 104 0
-102 -103 104 0
105 -52 0
105 -38 0
52 38 -105 0
-104 -105 -106 0
104 105 -106 0
-104 105 106 0
104 -105 106 0
-107 -29 0
-107 9 0
29 -9 107 0
108 106 0
108 107 0
-106 -107 -108 0
-109 100 0
-109 -108 0
-100 108 109 0
110 -81 0
110 -109 0
81 109 -110 0
-80 110 -111 0
80 -110 -111 0
-80 -110 111 0
80 110 111 0
40 -4 -112 0
-40 4 -112 0
40 4 112 0
-40 -4 112 0
6 -50 -113 0
-6 50 -113 0
6 50 113 0
-6 -50 113 0
114 22 0
114 16 0
-22 -16 -114 0
115 -113 0
115 114 0
113 -114 -115 0
-112 115 -116 0
112 -115 -116 0
-112 -115 116 0
112 115 116 0
-111 116 -117 0
111 -116 -117 0
-111 -116 117 0
111 116 117 0
-74 39 -66 57 64 -83 0
17 -86 49 0
-93 8 0
-99 -44 0
-10 8 112 111 -93 -104 0
-24 -43 16 19 0
106 12 48 -6 0
-30 28 62 105 0
2 -18 91 97 51 -110 0
31 38 75 0
-13 44 29 -23 0
46 99 0
-46 11 -72 20 -100 49 0
79 -13 112 27 0
-94 -7 -76 35 49 0
-73 16 79 0
28 72 -2 0
-89 56 -94 0
2 88 -78 -91 0
-21 59 0
-97 -90 83 0
-37 28 90 117 -48 0
31 -36 68 -10 0
100 -117 -106 -27 0
6 89 -25 -88 -8 0
-116 -57 -17 0
-86 -100 20 38 -95 0
59 -57 0
-70 -96 0
-1 14 115 -27 59 0
79 40 -16 -115 -52 93 0
57 18 -7 -88 0
-51 80 0
-35 -65 -3 5 44 73 0
100 78 43 -91 4 0
40 -32 27 103 77 110 0
112 97 -72 -105 0
-53 6 0
98 -81 0
27 16 -7 -76 0
-107 -92 0
95 -25 68 44 -33 56 0
-55 -56 -86 75 114 0
8 50 11 0
38 -71 89 -83 28 -117 0
84 96 -2 -114 0
42 -79 -47 0
59 -37 41 0
113 9 45 107 -68 -79 0
-80 -76 -28 0
98 -19 -39 -9 0
106 -1 -82 0
117 0
